predicate fzn_all_different_int(array [int] of var int: x);
predicate array_int_minimum(var int: m,array [int] of var int: x);
predicate fzn_global_cardinality(array [int] of var int: x,array [int] of int: cover,array [int] of var int: counts);
array [1..4] of int: X_INTRODUCED_69_ = [1,-4,-2,-1];
var 0..7: X_INTRODUCED_16_:: is_defined_var;
var 0..7: X_INTRODUCED_17_:: is_defined_var;
var 0..7: X_INTRODUCED_18_:: is_defined_var;
var 0..7: X_INTRODUCED_19_:: is_defined_var;
var 0..7: X_INTRODUCED_20_:: is_defined_var;
var 0..7: X_INTRODUCED_21_:: is_defined_var;
var 0..7: X_INTRODUCED_22_:: is_defined_var;
var 0..7: X_INTRODUCED_23_:: is_defined_var;
var int: X_INTRODUCED_58_;
var 0..1: X_INTRODUCED_61_ ::var_is_introduced ;
var 0..1: X_INTRODUCED_71_ ::var_is_introduced ;
var 0..1: X_INTRODUCED_78_ ::var_is_introduced ;
var 0..1: X_INTRODUCED_85_ ::var_is_introduced ;
var 0..1: X_INTRODUCED_92_ ::var_is_introduced ;
var 0..1: X_INTRODUCED_99_ ::var_is_introduced ;
var 0..1: X_INTRODUCED_106_ ::var_is_introduced ;
var 0..1: X_INTRODUCED_113_ ::var_is_introduced ;
array [1..8] of var int: x:: output_array([1..8]) = [X_INTRODUCED_16_,X_INTRODUCED_17_,X_INTRODUCED_18_,X_INTRODUCED_19_,X_INTRODUCED_20_,X_INTRODUCED_21_,X_INTRODUCED_22_,X_INTRODUCED_23_];
array [1..24] of var int: X_INTRODUCED_24_:: output_array([1..24]) = [X_INTRODUCED_61_,X_INTRODUCED_71_,X_INTRODUCED_78_,X_INTRODUCED_71_,X_INTRODUCED_78_,X_INTRODUCED_85_,X_INTRODUCED_78_,X_INTRODUCED_85_,X_INTRODUCED_92_,X_INTRODUCED_85_,X_INTRODUCED_92_,X_INTRODUCED_99_,X_INTRODUCED_92_,X_INTRODUCED_99_,X_INTRODUCED_106_,X_INTRODUCED_99_,X_INTRODUCED_106_,X_INTRODUCED_113_,X_INTRODUCED_106_,X_INTRODUCED_113_,X_INTRODUCED_61_,X_INTRODUCED_113_,X_INTRODUCED_61_,X_INTRODUCED_71_];
array [1..8] of var int: bin_code:: output_array([1..8]) = [X_INTRODUCED_61_,X_INTRODUCED_71_,X_INTRODUCED_78_,X_INTRODUCED_85_,X_INTRODUCED_92_,X_INTRODUCED_99_,X_INTRODUCED_106_,X_INTRODUCED_113_];
array [1..2] of var int: X_INTRODUCED_57_:: output_array([1..2]) = [X_INTRODUCED_58_,X_INTRODUCED_58_];
constraint fzn_all_different_int(x);
constraint array_int_minimum(X_INTRODUCED_16_,x);
constraint int_lin_eq(X_INTRODUCED_69_,[X_INTRODUCED_16_,X_INTRODUCED_61_,X_INTRODUCED_71_,X_INTRODUCED_78_],0):: defines_var(X_INTRODUCED_16_);
constraint int_lin_eq(X_INTRODUCED_69_,[X_INTRODUCED_17_,X_INTRODUCED_71_,X_INTRODUCED_78_,X_INTRODUCED_85_],0):: defines_var(X_INTRODUCED_17_);
constraint int_lin_eq(X_INTRODUCED_69_,[X_INTRODUCED_18_,X_INTRODUCED_78_,X_INTRODUCED_85_,X_INTRODUCED_92_],0):: defines_var(X_INTRODUCED_18_);
constraint int_lin_eq(X_INTRODUCED_69_,[X_INTRODUCED_19_,X_INTRODUCED_85_,X_INTRODUCED_92_,X_INTRODUCED_99_],0):: defines_var(X_INTRODUCED_19_);
constraint int_lin_eq(X_INTRODUCED_69_,[X_INTRODUCED_20_,X_INTRODUCED_92_,X_INTRODUCED_99_,X_INTRODUCED_106_],0):: defines_var(X_INTRODUCED_20_);
constraint int_lin_eq(X_INTRODUCED_69_,[X_INTRODUCED_21_,X_INTRODUCED_99_,X_INTRODUCED_106_,X_INTRODUCED_113_],0):: defines_var(X_INTRODUCED_21_);
constraint int_lin_eq(X_INTRODUCED_69_,[X_INTRODUCED_22_,X_INTRODUCED_106_,X_INTRODUCED_113_,X_INTRODUCED_61_],0):: defines_var(X_INTRODUCED_22_);
constraint int_lin_eq(X_INTRODUCED_69_,[X_INTRODUCED_23_,X_INTRODUCED_113_,X_INTRODUCED_61_,X_INTRODUCED_71_],0):: defines_var(X_INTRODUCED_23_);
constraint fzn_global_cardinality(bin_code,[0,1],[X_INTRODUCED_58_,X_INTRODUCED_58_]);
solve :: int_search(x,first_fail,indomain_split,complete) satisfy;
